1 19
2 16
3 7
4 16
5 19
6 6
7 11
8 17
9 11
10 12
11 10
12 10
13 14
14 14
15 16
16 4
17 8
18 2
19 10
20 9
21 9
22 7
23 5
24 12
25 11
26 5
27 20
28 1
29 1
30 1
31 1
32 1
33 3
34 1
35 3
36 1
37 3
38 23
39 15
40 1
41 1
42 18
43 1
44 22
45 19
46 2
47 23
48 14
49 19
50 2
51 5
52 6
53 9
54 15
55 5
56 17
57 6
58 13
59 8
60 13
61 7
62 5
63 18
64 7
65 16
66 17
67 22
68 5
69 16
70 8
71 8
72 8
73 18
74 8
75 10
76 8
77 19
78 5
79 5
80 5
81 5
82 11
83 11
84 11
85 8
86 12
87 18
88 7
89 16
90 17
91 15
92 21
93 4
94 14
95 17
96 6
97 3
98 12
99 13
100 3
101 6
102 2
103 4
104 14
105 17
106 17
107 7
108 3
109 7
110 3
111 3
112 7
113 18
114 4
115 4
116 4
117 24
118 2
119 13
120 14
121 10
122 12
123 10
124 4
125 21
126 8
127 5
128 23
129 19
130 4
131 4
132 11
133 4
134 5
135 5
136 9
137 9
138 16
139 7
140 16
141 7
142 18
143 8
144 8
145 15
146 11
147 5
148 5
149 20
150 5
151 9
152 2
153 2
154 2
155 6
156 6
157 8
158 14
159 9
160 9
161 22
162 15
163 18
164 15
165 17
166 12
167 11
168 16
169 12
170 20
171 18
172 19
173 6
174 10
175 13
176 15
177 11
178 11
179 20
180 22
181 21
